CMPL model generation - running

CMPL version: 1.11.0
Authors: Thomas Schleiff, Mike Steglich
Distributed under the GPLv3 

create model instance ...
write model instance ...
CMPL model generation - finished

Solver - running


Welcome to IBM(R) ILOG(R) CPLEX(R) Interactive Optimizer 12.7.1.0
  with Simplex, Mixed Integer & Barrier Optimizers
5725-A06 5725-A29 5724-Y48 5724-Y49 5724-Y54 5724-Y55 5655-Y21
Copyright IBM Corp. 1988, 2017.  All Rights Reserved.

Type 'help' for a list of available commands.
Type 'help' followed by a command name for more
information on commands.

CPLEX> Specified objective sense: MINIMIZE
Selected objective  name:  line[1]
Selected RHS        name:  RHS
Selected bound      name:  BOUND
Problem '/tmp/cmpl.T15195.mps' read.
Read time = 0.04 sec. (8.25 ticks)
CPLEX> CPXPARAM_Read_APIEncoding                        "UTF-8"
Tried aggregator 3 times.
MIP Presolve eliminated 18396 rows and 29030 columns.
MIP Presolve modified 596 coefficients.
Aggregator did 1411 substitutions.
Reduced MIP has 2548 rows, 4152 columns, and 12152 nonzeros.
Reduced MIP has 3984 binaries, 0 generals, 0 SOSs, and 0 indicators.
Presolve time = 0.05 sec. (45.19 ticks)
Found incumbent of value 3782.070352 after 0.11 sec. (91.35 ticks)
Probing time = 0.01 sec. (2.66 ticks)
Tried aggregator 1 time.
MIP Presolve eliminated 0 rows and 49 columns.
Reduced MIP has 2548 rows, 4103 columns, and 12054 nonzeros.
Reduced MIP has 4103 binaries, 0 generals, 0 SOSs, and 0 indicators.
Presolve time = 0.01 sec. (11.13 ticks)
Probing time = 0.01 sec. (2.82 ticks)
Clique table members: 3534.
MIP emphasis: balance optimality and feasibility.
MIP search method: dynamic search.
Parallel mode: none, using 1 thread.
Root relaxation solution time = 0.03 sec. (18.55 ticks)

        Nodes                                         Cuts/
   Node  Left     Objective  IInf  Best Integer    Best Bound    ItCnt     Gap

*     0+    0                         3782.0704        0.0000           100.00%
*     0     0      integral     0     1743.9052     1743.9052     1101    0.00%
Elapsed time = 0.19 sec. (134.83 ticks, tree = 0.00 MB, solutions = 2)

Root node processing (before b&c):
  Real time             =    0.19 sec. (136.11 ticks)
Sequential b&c:
  Real time             =    0.00 sec. (0.00 ticks)
                          ------------
Total (root+branch&cut) =    0.19 sec. (136.11 ticks)

Solution pool: 2 solutions saved.

MIP - Integer optimal solution:  Objective =  1.7439051610e+03
Solution time =    0.19 sec.  Iterations = 1101  Nodes = 0
Deterministic time = 136.21 ticks  (717.10 ticks/sec)

CPLEX> Incumbent solution written to file '/tmp/cmpl.T15195.gsol'.
CPLEX> 
CMPL: Time used for model generation: 1 seconds
CMPL: Time used for solving the model: 1 seconds


Solution written to ASCII file: results/output_generated/2017-06-05-4/fair-nonlinear.sol

Solver - finished
